words_hard_train/8557.qaiger
aag 34 11 0 1 23
2
4
8
10
14
18
22
26
28
32
34
68
6 2 5
12 9 11
16 12 14
20 17 18
24 21 23
30 26 28
36 32 34
38 31 37
40 33 35
42 39 41
44 8 10
46 44 15
48 47 19
50 42 49
52 24 51
54 6 53
56 26 32
58 56 44
60 19 23
62 59 60
64 63 2
66 65 4
68 55 67
i0 2 y2[6]
i1 2 y2[7]
i2 2 y2[2]
i3 2 y2[3]
i4 1 x1[7]
i5 2 y2[4]
i6 2 y2[5]
i7 2 y2[0]
i8 1 x1[5]
i9 2 y2[1]
i10 1 x1[6]
o0 bv[0]
c
simplified
  <
    add
      2 y2
      -79
    subtract
      1
      >> 5
        1 x1
