words_hard_train/8557.qaiger.qdimacs
p cnf 34 70
a 17 14 7 0
e 1 2 3 4 5 6 8 9 10 11 12 13 15 16 18 19 20 21 22 23 24 25 26 27 28 29 30 31 32 33 34 0
-1 2 3 0
1 -3 0
-2 -3 0
4 5 6 0
-4 -6 0
-5 -6 0
-6 -7 8 0
6 -8 0
7 -8 0
8 -9 10 0
-8 -10 0
9 -10 0
10 11 12 0
-10 -12 0
-11 -12 0
-13 -14 15 0
13 -15 0
14 -15 0
-16 -17 18 0
16 -18 0
17 -18 0
15 18 19 0
-15 -19 0
-18 -19 0
16 17 20 0
-16 -20 0
-17 -20 0
19 20 21 0
-19 -21 0
-20 -21 0
-4 -5 22 0
4 -22 0
5 -22 0
-22 7 23 0
22 -23 0
-7 -23 0
23 9 24 0
-23 -24 0
-9 -24 0
-21 24 25 0
21 -25 0
-24 -25 0
-12 25 26 0
12 -26 0
-25 -26 0
-3 26 27 0
3 -27 0
-26 -27 0
-13 -16 28 0
13 -28 0
16 -28 0
-28 -22 29 0
28 -29 0
22 -29 0
9 11 30 0
-9 -30 0
-11 -30 0
29 -30 31 0
-29 -31 0
30 -31 0
31 -1 32 0
-31 -32 0
1 -32 0
32 -2 33 0
-32 -33 0
2 -33 0
27 33 34 0
-27 -34 0
-33 -34 0
34 0
